\ Model idol-model
\ LP format - for model browsing. Use MPS format to capture full model detail.
\ Signature: 0xd7411b7e13872acb
Minimize
 
Subject To
 KF: 12 __copy_y39 + 67 __copy_y38 + 81 __copy_y37 + 13 __copy_y36
   + 31 __copy_y35 + 68 __copy_y34 + 48 __copy_y33 + 40 __copy_y32
   + 30 __copy_y31 + 51 __copy_y30 + 81 __copy_y29 + __copy_y28
   + 37 __copy_y27 + 75 __copy_y26 + 76 __copy_y25 + 60 __copy_y24
   + 27 __copy_y23 + 100 __copy_y22 + 11 __copy_y21 + 47 __copy_y20
   + 39 __copy_y19 + 45 __copy_y18 + 47 __copy_y17 + 5 __copy_y16
   + 56 __copy_y15 + 23 __copy_y14 + 76 __copy_y13 + 100 __copy_y12
   + 25 __copy_y11 + 89 __copy_y10 + 63 __copy_y9 + 23 __copy_y8
   + 86 __copy_y7 + 22 __copy_y6 + 74 __copy_y5 + 13 __copy_y4
   + 90 __copy_y3 + 67 __copy_y2 + 96 __copy_y1 + __copy_y0 <= 1633
 I0: __copy_y0 + x0 <= 1
 I1: __copy_y1 + x1 <= 1
 I2: __copy_y2 + x2 <= 1
 I3: __copy_y3 + x3 <= 1
 I4: __copy_y4 + x4 <= 1
 I5: __copy_y5 + x5 <= 1
 I6: __copy_y6 + x6 <= 1
 I7: __copy_y7 + x7 <= 1
 I8: __copy_y8 + x8 <= 1
 I9: __copy_y9 + x9 <= 1
 I10: __copy_y10 + x10 <= 1
 I11: __copy_y11 + x11 <= 1
 I12: __copy_y12 + x12 <= 1
 I13: __copy_y13 + x13 <= 1
 I14: __copy_y14 + x14 <= 1
 I15: __copy_y15 + x15 <= 1
 I16: __copy_y16 + x16 <= 1
 I17: __copy_y17 + x17 <= 1
 I18: __copy_y18 + x18 <= 1
 I19: __copy_y19 + x19 <= 1
 I20: __copy_y20 + x20 <= 1
 I21: __copy_y21 + x21 <= 1
 I22: __copy_y22 + x22 <= 1
 I23: __copy_y23 + x23 <= 1
 I24: __copy_y24 + x24 <= 1
 I25: __copy_y25 + x25 <= 1
 I26: __copy_y26 + x26 <= 1
 I27: __copy_y27 + x27 <= 1
 I28: __copy_y28 + x28 <= 1
 I29: __copy_y29 + x29 <= 1
 I30: __copy_y30 + x30 <= 1
 I31: __copy_y31 + x31 <= 1
 I32: __copy_y32 + x32 <= 1
 I33: __copy_y33 + x33 <= 1
 I34: __copy_y34 + x34 <= 1
 I35: __copy_y35 + x35 <= 1
 I36: __copy_y36 + x36 <= 1
 I37: __copy_y37 + x37 <= 1
 I38: __copy_y38 + x38 <= 1
 I39: __copy_y39 + x39 <= 1
Bounds
Binaries
 __copy_y39 __copy_y38 __copy_y37 __copy_y36 __copy_y35 __copy_y34
 __copy_y33 __copy_y32 __copy_y31 __copy_y30 __copy_y29 __copy_y28
 __copy_y27 __copy_y26 __copy_y25 __copy_y24 __copy_y23 __copy_y22
 __copy_y21 __copy_y20 __copy_y19 __copy_y18 __copy_y17 __copy_y16
 __copy_y15 __copy_y14 __copy_y13 __copy_y12 __copy_y11 __copy_y10
 __copy_y9 __copy_y8 __copy_y7 __copy_y6 __copy_y5 __copy_y4 __copy_y3
 __copy_y2 __copy_y1 __copy_y0 x0 x1 x2 x3 x4 x5 x6 x7 x8 x9 x10 x11 x12
 x13 x14 x15 x16 x17 x18 x19 x20 x21 x22 x23 x24 x25 x26 x27 x28 x29 x30
 x31 x32 x33 x34 x35 x36 x37 x38 x39
End
